NAME: line_50_7
TYPE: TSP
COMMENT: line_50_7
DIMENSION: 50
EDGE_WEIGHT_TYPE: EUC_2D
NODE_COORD_SECTION
1 0.0 379.0
2 0.0 54.0
3 0.0 38.0
4 0.0 33.0
5 0.0 177.0
6 0.0 364.0
7 0.0 50.0
8 0.0 373.0
9 0.0 394.0
10 0.0 279.0
11 0.0 246.0
12 0.0 156.0
13 0.0 52.0
14 0.0 5.0
15 0.0 164.0
16 0.0 466.0
17 0.0 4.0
18 0.0 263.0
19 0.0 4.0
20 0.0 288.0
21 0.0 451.0
22 0.0 63.0
23 0.0 207.0
24 0.0 54.0
25 0.0 154.0
26 0.0 262.0
27 0.0 400.0
28 0.0 376.0
29 0.0 247.0
30 0.0 29.0
31 0.0 208.0
32 0.0 141.0
33 0.0 166.0
34 0.0 278.0
35 0.0 440.0
36 0.0 422.0
37 0.0 188.0
38 0.0 263.0
39 0.0 188.0
40 0.0 300.0
41 0.0 383.0
42 0.0 3.0
43 0.0 109.0
44 0.0 308.0
45 0.0 498.0
46 0.0 79.0
47 0.0 393.0
48 0.0 354.0
49 0.0 67.0
50 0.0 412.0
